\ Model feasible
\ LP format - for model browsing. Use MPS format to capture full model detail.
Maximize
  x_0 + x_1 + x_2 + x_3 + x_4 + x_5 + x_6 + x_7 + x_8 + x_9 + x_10 + x_11
   + x_12 + x_13 + x_14 + x_15 + x_16 + x_17 + x_18 + x_19
Subject To
 constraint1: x_0 + x_1 + x_2 + x_3 + x_4 + x_5 + x_6 + x_7 + x_8 + x_9
   + x_10 + x_11 + x_12 + x_13 + x_14 + x_15 + x_16 + x_17 + x_18 + x_19
   = 10000
Bounds
 x_0 <= 10000
 x_1 <= 10000
 x_2 <= 10000
 x_3 <= 10000
 x_4 <= 10000
 x_5 <= 10000
 x_6 <= 10000
 x_7 <= 10000
 x_8 <= 10000
 x_9 <= 10000
 x_10 <= 10000
 x_11 <= 10000
 x_12 <= 10000
 x_13 <= 10000
 x_14 <= 10000
 x_15 <= 10000
 x_16 <= 10000
 x_17 <= 10000
 x_18 <= 10000
 x_19 <= 10000
End
